NAME profit_maximization
OBJSENSE MAX
ROWS
 N  OBJ
 G  Fraction_lower_bound_0
 L  Fraction_upper_bound_0
 E  R2      
 E  R3      
 E  R4      
 E  R5      
 E  R6      
 E  R7      
 E  R8      
 E  R9      
 G  Fraction_lower_bound_1
 L  Fraction_upper_bound_1
 E  R12     
 E  R13     
 E  R14     
 E  R15     
 E  R16     
 E  R17     
 E  R18     
 E  R19     
 G  Fraction_lower_bound_2
 L  Fraction_upper_bound_2
 E  R22     
 E  R23     
 E  R24     
 E  R25     
 E  R26     
 E  R27     
 E  R28     
 E  R29     
 G  Fraction_lower_bound_3
 L  Fraction_upper_bound_3
 E  R32     
 E  R33     
 E  R34     
 E  R35     
 E  R36     
 E  R37     
 E  R38     
 E  R39     
 G  Fraction_lower_bound_4
 L  Fraction_upper_bound_4
 E  R42     
 E  R43     
 E  R44     
 E  R45     
 E  R46     
 E  R47     
 E  R48     
 E  R49     
 G  Fraction_lower_bound_5
 L  Fraction_upper_bound_5
 E  R52     
 E  R53     
 E  R54     
 E  R55     
 E  R56     
 E  R57     
 E  R58     
 E  R59     
 G  Fraction_lower_bound_6
 L  Fraction_upper_bound_6
 E  R62     
 E  R63     
 E  R64     
 E  R65     
 E  R66     
 E  R67     
 E  R68     
 E  R69     
 G  Fraction_lower_bound_7
 L  Fraction_upper_bound_7
 E  R72     
 E  R73     
 E  R74     
 E  R75     
 E  R76     
 E  R77     
 E  R78     
 E  R79     
 G  Fraction_lower_bound_8
 L  Fraction_upper_bound_8
 E  R82     
 E  R83     
 E  R84     
 E  R85     
 E  R86     
 E  R87     
 E  R88     
 E  R89     
 G  Fraction_lower_bound_9
 L  Fraction_upper_bound_9
 E  R92     
 E  R93     
 E  R94     
 E  R95     
 E  R96     
 E  R97     
 E  R98     
 E  R99     
 G  Fraction_lower_bound_10
 L  Fraction_upper_bound_10
 E  R102    
 E  R103    
 E  R104    
 E  R105    
 E  R106    
 E  R107    
 E  R108    
 E  R109    
 G  Fraction_lower_bound_11
 L  Fraction_upper_bound_11
 E  R112    
 E  R113    
 E  R114    
 E  R115    
 E  R116    
 E  R117    
 E  R118    
 E  R119    
 G  Fraction_lower_bound_12
 L  Fraction_upper_bound_12
 E  R122    
 E  R123    
 E  R124    
 E  R125    
 E  R126    
 E  R127    
 E  R128    
 E  R129    
 G  Fraction_lower_bound_13
 L  Fraction_upper_bound_13
 E  R132    
 E  R133    
 E  R134    
 E  R135    
 E  R136    
 E  R137    
 E  R138    
 E  R139    
 G  Fraction_lower_bound_14
 L  Fraction_upper_bound_14
 E  R142    
 E  R143    
 E  R144    
 E  R145    
 E  R146    
 E  R147    
 E  R148    
 E  R149    
COLUMNS
    alphas[0]  R2        -1.0503443450278620e+00
    alphas[0]  R12       -9.6916834147440276e-02
    alphas[0]  R22       -2.0331477105216362e+00
    alphas[0]  R32       -7.0434583920102578e-01
    alphas[0]  R42       2.3292475635973409e-01
    alphas[0]  R52       -0.544268956839954
    alphas[0]  R62       1.9558556568841607e+00
    alphas[0]  R72       7.5355794653084029e-01
    alphas[0]  R82       -7.7324972413581172e-01
    alphas[0]  R92       8.0250967608806689e-01
    alphas[0]  R102      -5.9375292257906209e-01
    alphas[0]  R112      2.1200387259517237e-01
    alphas[0]  R122      1.4607659989432282e+00
    alphas[0]  R132      7.6757640168082952e-01
    alphas[0]  R142      -3.8916797662925540e-01
    alphas[1]  R2        -1.0675485806647909e+00
    alphas[1]  R12       -0.741640083241044
    alphas[1]  R22       9.9567861181873063e-01
    alphas[1]  R32       -1.0161564287233320e+00
    alphas[1]  R42       1.3392312726688940e+00
    alphas[1]  R52       -9.7661966846444592e-01
    alphas[1]  R62       -9.5099257225717437e-01
    alphas[1]  R72       -4.9217360694948331e-01
    alphas[1]  R82       5.2421224886101091e-02
    alphas[1]  R92       -7.3448461515329844e-01
    alphas[1]  R102      1.1413473970795152e+00
    alphas[1]  R112      -6.5269465928109593e-01
    alphas[1]  R122      9.2990388517501618e-02
    alphas[1]  R132      2.0442476004353951e+00
    alphas[1]  R142      9.6639371932853657e-01
    alphas[2]  R2        -1.4584597275372397e+00
    alphas[2]  R12       -1.5127039725169680e+00
    alphas[2]  R22       4.4715060844185289e-01
    alphas[2]  R32       1.2768893144281710e+00
    alphas[2]  R42       -0.327321534244252
    alphas[2]  R52       1.7320750159092949e-01
    alphas[2]  R62       -1.5095508119171066e+00
    alphas[2]  R72       1.6061224519078998e+00
    alphas[2]  R82       -8.1441920352456876e-01
    alphas[2]  R92       8.5394765966508834e-01
    alphas[2]  R102      1.0123429255651990e+00
    alphas[2]  R112      -4.0737175112024165e-01
    alphas[2]  R122      9.9668351695045709e-01
    alphas[2]  R132      -4.1868178939386941e-01
    alphas[2]  R142      8.2164811704645374e-02
    alphas[3]  R2        -1.3687789184914778e+00
    alphas[3]  R12       1.3849295307186693e+00
    alphas[3]  R22       9.5262972624025388e-01
    alphas[3]  R32       2.8468859350583581e-01
    alphas[3]  R42       -1.4696103690375464e+00
    alphas[3]  R52       5.6233674868611194e-01
    alphas[3]  R62       9.9720124829194312e-01
    alphas[3]  R72       -1.2644630430620538e+00
    alphas[3]  R82       0.106270709504071
    alphas[3]  R92       -1.3316767517907226e+00
    alphas[3]  R102      9.9794027925705475e-01
    alphas[3]  R112      -5.6279347977803418e-01
    alphas[3]  R122      1.2537348379385571e-01
    alphas[3]  R132      1.2588805785168433e+00
    alphas[3]  R142      -6.7292833635480176e-01
    alphas[4]  R2        -1
    alphas[4]  R12       -1
    alphas[4]  R22       -1
    alphas[4]  R32       -1
    alphas[4]  R42       -1
    alphas[4]  R52       -1
    alphas[4]  R62       -1
    alphas[4]  R72       -1
    alphas[4]  R82       -1
    alphas[4]  R92       -1
    alphas[4]  R102      -1
    alphas[4]  R112      -1
    alphas[4]  R122      -1
    alphas[4]  R132      -1
    alphas[4]  R142      -1
    Sold_0[0]  R6        1
    Sold_0[0]  R9        -700
    Sold_0[1]  R16       1
    Sold_0[1]  R19       -700
    Sold_0[2]  R26       1
    Sold_0[2]  R29       -700
    Sold_0[3]  R36       1
    Sold_0[3]  R39       -700
    Sold_0[4]  R46       1
    Sold_0[4]  R49       -700
    Sold_0[5]  R56       1
    Sold_0[5]  R59       -700
    Sold_0[6]  R66       1
    Sold_0[6]  R69       -700
    Sold_0[7]  R76       1
    Sold_0[7]  R79       -700
    Sold_0[8]  R86       1
    Sold_0[8]  R89       -700
    Sold_0[9]  R96       1
    Sold_0[9]  R99       -700
    Sold_0[10]  R106      1
    Sold_0[10]  R109      -700
    Sold_0[11]  R116      1
    Sold_0[11]  R119      -700
    Sold_0[12]  R126      1
    Sold_0[12]  R129      -700
    Sold_0[13]  R136      1
    Sold_0[13]  R139      -700
    Sold_0[14]  R146      1
    Sold_0[14]  R149      -700
    Sold_1[0]  R8        1
    Sold_1[0]  R9        -700
    Sold_1[1]  R18       1
    Sold_1[1]  R19       -700
    Sold_1[2]  R28       1
    Sold_1[2]  R29       -700
    Sold_1[3]  R38       1
    Sold_1[3]  R39       -700
    Sold_1[4]  R48       1
    Sold_1[4]  R49       -700
    Sold_1[5]  R58       1
    Sold_1[5]  R59       -700
    Sold_1[6]  R68       1
    Sold_1[6]  R69       -700
    Sold_1[7]  R78       1
    Sold_1[7]  R79       -700
    Sold_1[8]  R88       1
    Sold_1[8]  R89       -700
    Sold_1[9]  R98       1
    Sold_1[9]  R99       -700
    Sold_1[10]  R108      1
    Sold_1[10]  R109      -700
    Sold_1[11]  R118      1
    Sold_1[11]  R119      -700
    Sold_1[12]  R128      1
    Sold_1[12]  R129      -700
    Sold_1[13]  R138      1
    Sold_1[13]  R139      -700
    Sold_1[14]  R148      1
    Sold_1[14]  R149      -700
    Lost_0[0]  R9        700
    Lost_0[1]  R19       700
    Lost_0[2]  R29       700
    Lost_0[3]  R39       700
    Lost_0[4]  R49       700
    Lost_0[5]  R59       700
    Lost_0[6]  R69       700
    Lost_0[7]  R79       700
    Lost_0[8]  R89       700
    Lost_0[9]  R99       700
    Lost_0[10]  R109      700
    Lost_0[11]  R119      700
    Lost_0[12]  R129      700
    Lost_0[13]  R139      700
    Lost_0[14]  R149      700
    Lost_1[0]  R9        700
    Lost_1[1]  R19       700
    Lost_1[2]  R29       700
    Lost_1[3]  R39       700
    Lost_1[4]  R49       700
    Lost_1[5]  R59       700
    Lost_1[6]  R69       700
    Lost_1[7]  R79       700
    Lost_1[8]  R89       700
    Lost_1[9]  R99       700
    Lost_1[10]  R109      700
    Lost_1[11]  R119      700
    Lost_1[12]  R129      700
    Lost_1[13]  R139      700
    Lost_1[14]  R149      700
    Left_1[0]  R8        1
    Left_1[0]  R9        300
    Left_1[1]  R18       1
    Left_1[1]  R19       300
    Left_1[2]  R28       1
    Left_1[2]  R29       300
    Left_1[3]  R38       1
    Left_1[3]  R39       300
    Left_1[4]  R48       1
    Left_1[4]  R49       300
    Left_1[5]  R58       1
    Left_1[5]  R59       300
    Left_1[6]  R68       1
    Left_1[6]  R69       300
    Left_1[7]  R78       1
    Left_1[7]  R79       300
    Left_1[8]  R88       1
    Left_1[8]  R89       300
    Left_1[9]  R98       1
    Left_1[9]  R99       300
    Left_1[10]  R108      1
    Left_1[10]  R109      300
    Left_1[11]  R118      1
    Left_1[11]  R119      300
    Left_1[12]  R128      1
    Left_1[12]  R129      300
    Left_1[13]  R138      1
    Left_1[13]  R139      300
    Left_1[14]  R148      1
    Left_1[14]  R149      300
    f_var[0]  R2        1
    f_var[1]  R12       1
    f_var[2]  R22       1
    f_var[3]  R32       1
    f_var[4]  R42       1
    f_var[5]  R52       1
    f_var[6]  R62       1
    f_var[7]  R72       1
    f_var[8]  R82       1
    f_var[9]  R92       1
    f_var[10]  R102      1
    f_var[11]  R112      1
    f_var[12]  R122      1
    f_var[13]  R132      1
    f_var[14]  R142      1
    Fraction[0]  Fraction_lower_bound_0  1
    Fraction[0]  Fraction_upper_bound_0  1
    Fraction[0]  R3        -2.2385235606065794e+03
    Fraction[1]  Fraction_lower_bound_1  1
    Fraction[1]  Fraction_upper_bound_1  1
    Fraction[1]  R13       -2.2385235606065794e+03
    Fraction[2]  Fraction_lower_bound_2  1
    Fraction[2]  Fraction_upper_bound_2  1
    Fraction[2]  R23       -2.2385235606065794e+03
    Fraction[3]  Fraction_lower_bound_3  1
    Fraction[3]  Fraction_upper_bound_3  1
    Fraction[3]  R33       -2.2385235606065794e+03
    Fraction[4]  Fraction_lower_bound_4  1
    Fraction[4]  Fraction_upper_bound_4  1
    Fraction[4]  R43       -2.2385235606065794e+03
    Fraction[5]  Fraction_lower_bound_5  1
    Fraction[5]  Fraction_upper_bound_5  1
    Fraction[5]  R53       -2.2385235606065794e+03
    Fraction[6]  Fraction_lower_bound_6  1
    Fraction[6]  Fraction_upper_bound_6  1
    Fraction[6]  R63       -2.2385235606065794e+03
    Fraction[7]  Fraction_lower_bound_7  1
    Fraction[7]  Fraction_upper_bound_7  1
    Fraction[7]  R73       -2.2385235606065794e+03
    Fraction[8]  Fraction_lower_bound_8  1
    Fraction[8]  Fraction_upper_bound_8  1
    Fraction[8]  R83       -2.2385235606065794e+03
    Fraction[9]  Fraction_lower_bound_9  1
    Fraction[9]  Fraction_upper_bound_9  1
    Fraction[9]  R93       -2.2385235606065794e+03
    Fraction[10]  Fraction_lower_bound_10  1
    Fraction[10]  Fraction_upper_bound_10  1
    Fraction[10]  R103      -2.2385235606065794e+03
    Fraction[11]  Fraction_lower_bound_11  1
    Fraction[11]  Fraction_upper_bound_11  1
    Fraction[11]  R113      -2.2385235606065794e+03
    Fraction[12]  Fraction_lower_bound_12  1
    Fraction[12]  Fraction_upper_bound_12  1
    Fraction[12]  R123      -2.2385235606065794e+03
    Fraction[13]  Fraction_lower_bound_13  1
    Fraction[13]  Fraction_upper_bound_13  1
    Fraction[13]  R133      -2.2385235606065794e+03
    Fraction[14]  Fraction_lower_bound_14  1
    Fraction[14]  Fraction_upper_bound_14  1
    Fraction[14]  R143      -2.2385235606065794e+03
    Q0_var[0]  R3        1
    Q0_var[0]  R4        1
    Q0_var[0]  R5        1
    Q0_var[0]  R6        -1
    Q0_var[1]  R13       1
    Q0_var[1]  R14       1
    Q0_var[1]  R15       1
    Q0_var[1]  R16       -1
    Q0_var[2]  R23       1
    Q0_var[2]  R24       1
    Q0_var[2]  R25       1
    Q0_var[2]  R26       -1
    Q0_var[3]  R33       1
    Q0_var[3]  R34       1
    Q0_var[3]  R35       1
    Q0_var[3]  R36       -1
    Q0_var[4]  R43       1
    Q0_var[4]  R44       1
    Q0_var[4]  R45       1
    Q0_var[4]  R46       -1
    Q0_var[5]  R53       1
    Q0_var[5]  R54       1
    Q0_var[5]  R55       1
    Q0_var[5]  R56       -1
    Q0_var[6]  R63       1
    Q0_var[6]  R64       1
    Q0_var[6]  R65       1
    Q0_var[6]  R66       -1
    Q0_var[7]  R73       1
    Q0_var[7]  R74       1
    Q0_var[7]  R75       1
    Q0_var[7]  R76       -1
    Q0_var[8]  R83       1
    Q0_var[8]  R84       1
    Q0_var[8]  R85       1
    Q0_var[8]  R86       -1
    Q0_var[9]  R93       1
    Q0_var[9]  R94       1
    Q0_var[9]  R95       1
    Q0_var[9]  R96       -1
    Q0_var[10]  R103      1
    Q0_var[10]  R104      1
    Q0_var[10]  R105      1
    Q0_var[10]  R106      -1
    Q0_var[11]  R113      1
    Q0_var[11]  R114      1
    Q0_var[11]  R115      1
    Q0_var[11]  R116      -1
    Q0_var[12]  R123      1
    Q0_var[12]  R124      1
    Q0_var[12]  R125      1
    Q0_var[12]  R126      -1
    Q0_var[13]  R133      1
    Q0_var[13]  R134      1
    Q0_var[13]  R135      1
    Q0_var[13]  R136      -1
    Q0_var[14]  R143      1
    Q0_var[14]  R144      1
    Q0_var[14]  R145      1
    Q0_var[14]  R146      -1
    Q1_var[0]  R6        -1
    Q1_var[1]  R16       -1
    Q1_var[2]  R26       -1
    Q1_var[3]  R36       -1
    Q1_var[4]  R46       -1
    Q1_var[5]  R56       -1
    Q1_var[6]  R66       -1
    Q1_var[7]  R76       -1
    Q1_var[8]  R86       -1
    Q1_var[9]  R96       -1
    Q1_var[10]  R106      -1
    Q1_var[11]  R116      -1
    Q1_var[12]  R126      -1
    Q1_var[13]  R136      -1
    Q1_var[14]  R146      -1
    profits_vars[0]  OBJ       1
    profits_vars[0]  R9        1
    profits_vars[1]  OBJ       1
    profits_vars[1]  R19       1
    profits_vars[2]  OBJ       1
    profits_vars[2]  R29       1
    profits_vars[3]  OBJ       1
    profits_vars[3]  R39       1
    profits_vars[4]  OBJ       1
    profits_vars[4]  R49       1
    profits_vars[5]  OBJ       1
    profits_vars[5]  R59       1
    profits_vars[6]  OBJ       1
    profits_vars[6]  R69       1
    profits_vars[7]  OBJ       1
    profits_vars[7]  R79       1
    profits_vars[8]  OBJ       1
    profits_vars[8]  R89       1
    profits_vars[9]  OBJ       1
    profits_vars[9]  R99       1
    profits_vars[10]  OBJ       1
    profits_vars[10]  R109      1
    profits_vars[11]  OBJ       1
    profits_vars[11]  R119      1
    profits_vars[12]  OBJ       1
    profits_vars[12]  R129      1
    profits_vars[13]  OBJ       1
    profits_vars[13]  R139      1
    profits_vars[14]  OBJ       1
    profits_vars[14]  R149      1
    Lost_0_expr_0  R4        1
    Q_hat_adjusted_0  R5        1
    total_stock_second_period_0  R6        1
    total_stock_second_period_0  R7        1
    total_stock_second_period_0  R8        -1
    Lost_1_expr_0  R7        1
    Lost_0_expr_1  R14       1
    Q_hat_adjusted_1  R15       1
    total_stock_second_period_1  R16       1
    total_stock_second_period_1  R17       1
    total_stock_second_period_1  R18       -1
    Lost_1_expr_1  R17       1
    Lost_0_expr_2  R24       1
    Q_hat_adjusted_2  R25       1
    total_stock_second_period_2  R26       1
    total_stock_second_period_2  R27       1
    total_stock_second_period_2  R28       -1
    Lost_1_expr_2  R27       1
    Lost_0_expr_3  R34       1
    Q_hat_adjusted_3  R35       1
    total_stock_second_period_3  R36       1
    total_stock_second_period_3  R37       1
    total_stock_second_period_3  R38       -1
    Lost_1_expr_3  R37       1
    Lost_0_expr_4  R44       1
    Q_hat_adjusted_4  R45       1
    total_stock_second_period_4  R46       1
    total_stock_second_period_4  R47       1
    total_stock_second_period_4  R48       -1
    Lost_1_expr_4  R47       1
    Lost_0_expr_5  R54       1
    Q_hat_adjusted_5  R55       1
    total_stock_second_period_5  R56       1
    total_stock_second_period_5  R57       1
    total_stock_second_period_5  R58       -1
    Lost_1_expr_5  R57       1
    Lost_0_expr_6  R64       1
    Q_hat_adjusted_6  R65       1
    total_stock_second_period_6  R66       1
    total_stock_second_period_6  R67       1
    total_stock_second_period_6  R68       -1
    Lost_1_expr_6  R67       1
    Lost_0_expr_7  R74       1
    Q_hat_adjusted_7  R75       1
    total_stock_second_period_7  R76       1
    total_stock_second_period_7  R77       1
    total_stock_second_period_7  R78       -1
    Lost_1_expr_7  R77       1
    Lost_0_expr_8  R84       1
    Q_hat_adjusted_8  R85       1
    total_stock_second_period_8  R86       1
    total_stock_second_period_8  R87       1
    total_stock_second_period_8  R88       -1
    Lost_1_expr_8  R87       1
    Lost_0_expr_9  R94       1
    Q_hat_adjusted_9  R95       1
    total_stock_second_period_9  R96       1
    total_stock_second_period_9  R97       1
    total_stock_second_period_9  R98       -1
    Lost_1_expr_9  R97       1
    Lost_0_expr_10  R104      1
    Q_hat_adjusted_10  R105      1
    total_stock_second_period_10  R106      1
    total_stock_second_period_10  R107      1
    total_stock_second_period_10  R108      -1
    Lost_1_expr_10  R107      1
    Lost_0_expr_11  R114      1
    Q_hat_adjusted_11  R115      1
    total_stock_second_period_11  R116      1
    total_stock_second_period_11  R117      1
    total_stock_second_period_11  R118      -1
    Lost_1_expr_11  R117      1
    Lost_0_expr_12  R124      1
    Q_hat_adjusted_12  R125      1
    total_stock_second_period_12  R126      1
    total_stock_second_period_12  R127      1
    total_stock_second_period_12  R128      -1
    Lost_1_expr_12  R127      1
    Lost_0_expr_13  R134      1
    Q_hat_adjusted_13  R135      1
    total_stock_second_period_13  R136      1
    total_stock_second_period_13  R137      1
    total_stock_second_period_13  R138      -1
    Lost_1_expr_13  R137      1
    Lost_0_expr_14  R144      1
    Q_hat_adjusted_14  R145      1
    total_stock_second_period_14  R146      1
    total_stock_second_period_14  R147      1
    total_stock_second_period_14  R148      -1
    Lost_1_expr_14  R147      1
RHS
    RHS1      Fraction_upper_bound_0  1
    RHS1      R4        2.2010286545732342e+03
    RHS1      R5        2.7881578401971328e+03
    RHS1      R7        5.8712810640902512e+02
    RHS1      Fraction_upper_bound_1  1
    RHS1      R14       2.3751695393564105e+03
    RHS1      R15       2.9703431191772997e+03
    RHS1      R17       595.172500780447
    RHS1      Fraction_upper_bound_2  1
    RHS1      R24       9.0426326690706151e+02
    RHS1      R25       1.2087913937243338e+03
    RHS1      R27       3.0452704768653081e+02
    RHS1      Fraction_upper_bound_3  1
    RHS1      R34       9.5712113269199369e+02
    RHS1      R35       1.1385994247564417e+03
    RHS1      R37       1.8147721302451703e+02
    RHS1      Fraction_upper_bound_4  1
    RHS1      R44       1.6174405828412530e+03
    RHS1      R45       2.0368225410204341e+03
    RHS1      R47       4.1938087868326465e+02
    RHS1      Fraction_upper_bound_5  1
    RHS1      R54       1.1940234594957019e+03
    RHS1      R55       1.5391772121978129e+03
    RHS1      R57       3.4515267327436857e+02
    RHS1      Fraction_upper_bound_6  1
    RHS1      R64       2.5902844386069337e+03
    RHS1      R65       3.1849904065283567e+03
    RHS1      R67       5.9470488864221568e+02
    RHS1      Fraction_upper_bound_7  1
    RHS1      R74       4.9944614420837280e+02
    RHS1      R75       6.3209932702833260e+02
    RHS1      R77       1.3265210352446960e+02
    RHS1      Fraction_upper_bound_8  1
    RHS1      R84       1.8540669033820313e+03
    RHS1      R85       2.3456852023389520e+03
    RHS1      R87       4.9161721915690657e+02
    RHS1      Fraction_upper_bound_9  1
    RHS1      R94       9.2805716127200390e+02
    RHS1      R95       1.1722574892654479e+03
    RHS1      R97       2.4419924866582062e+02
    RHS1      Fraction_upper_bound_10  1
    RHS1      R104      8.4464753789780207e+02
    RHS1      R105      1.0653579270971027e+03
    RHS1      R107      220.709310038287
    RHS1      Fraction_upper_bound_11  1
    RHS1      R114      1.8154775765040301e+03
    RHS1      R115      2.2467309417223282e+03
    RHS1      R117      431.252285766338
    RHS1      Fraction_upper_bound_12  1
    RHS1      R124      1.0128615657648268e+03
    RHS1      R125      1.2358942379781374e+03
    RHS1      R127      2.2303159249548048e+02
    RHS1      Fraction_upper_bound_13  1
    RHS1      R134      1.7829991719080851e+03
    RHS1      R135      2.2159298095168865e+03
    RHS1      R137      4.3292955877959383e+02
    RHS1      Fraction_upper_bound_14  1
    RHS1      R144      1.3231457132094265e+03
    RHS1      R145      1.6818010507183642e+03
    RHS1      R147      3.5865425860114436e+02
BOUNDS
 FR BND1      alphas[0]
 FR BND1      alphas[1]
 FR BND1      alphas[2]
 FR BND1      alphas[3]
 FR BND1      alphas[4]
 FR BND1      f_var[0]
 FR BND1      f_var[1]
 FR BND1      f_var[2]
 FR BND1      f_var[3]
 FR BND1      f_var[4]
 FR BND1      f_var[5]
 FR BND1      f_var[6]
 FR BND1      f_var[7]
 FR BND1      f_var[8]
 FR BND1      f_var[9]
 FR BND1      f_var[10]
 FR BND1      f_var[11]
 FR BND1      f_var[12]
 FR BND1      f_var[13]
 FR BND1      f_var[14]
 UP BND1      Fraction[0]  1
 UP BND1      Fraction[1]  1
 UP BND1      Fraction[2]  1
 UP BND1      Fraction[3]  1
 UP BND1      Fraction[4]  1
 UP BND1      Fraction[5]  1
 UP BND1      Fraction[6]  1
 UP BND1      Fraction[7]  1
 UP BND1      Fraction[8]  1
 UP BND1      Fraction[9]  1
 UP BND1      Fraction[10]  1
 UP BND1      Fraction[11]  1
 UP BND1      Fraction[12]  1
 UP BND1      Fraction[13]  1
 UP BND1      Fraction[14]  1
 UP BND1      Q0_var[0]  2.2395235606065794e+03
 UP BND1      Q0_var[1]  2.2395235606065794e+03
 UP BND1      Q0_var[2]  2.2395235606065794e+03
 UP BND1      Q0_var[3]  2.2395235606065794e+03
 UP BND1      Q0_var[4]  2.2395235606065794e+03
 UP BND1      Q0_var[5]  2.2395235606065794e+03
 UP BND1      Q0_var[6]  2.2395235606065794e+03
 UP BND1      Q0_var[7]  2.2395235606065794e+03
 UP BND1      Q0_var[8]  2.2395235606065794e+03
 UP BND1      Q0_var[9]  2.2395235606065794e+03
 UP BND1      Q0_var[10]  2.2395235606065794e+03
 UP BND1      Q0_var[11]  2.2395235606065794e+03
 UP BND1      Q0_var[12]  2.2395235606065794e+03
 UP BND1      Q0_var[13]  2.2395235606065794e+03
 UP BND1      Q0_var[14]  2.2395235606065794e+03
 FR BND1      profits_vars[0]
 FR BND1      profits_vars[1]
 FR BND1      profits_vars[2]
 FR BND1      profits_vars[3]
 FR BND1      profits_vars[4]
 FR BND1      profits_vars[5]
 FR BND1      profits_vars[6]
 FR BND1      profits_vars[7]
 FR BND1      profits_vars[8]
 FR BND1      profits_vars[9]
 FR BND1      profits_vars[10]
 FR BND1      profits_vars[11]
 FR BND1      profits_vars[12]
 FR BND1      profits_vars[13]
 FR BND1      profits_vars[14]
 FR BND1      Lost_0_expr_0
 FR BND1      Q_hat_adjusted_0
 FR BND1      Lost_1_expr_0
 FR BND1      Lost_0_expr_1
 FR BND1      Q_hat_adjusted_1
 FR BND1      Lost_1_expr_1
 FR BND1      Lost_0_expr_2
 FR BND1      Q_hat_adjusted_2
 FR BND1      Lost_1_expr_2
 FR BND1      Lost_0_expr_3
 FR BND1      Q_hat_adjusted_3
 FR BND1      Lost_1_expr_3
 FR BND1      Lost_0_expr_4
 FR BND1      Q_hat_adjusted_4
 FR BND1      Lost_1_expr_4
 FR BND1      Lost_0_expr_5
 FR BND1      Q_hat_adjusted_5
 FR BND1      Lost_1_expr_5
 FR BND1      Lost_0_expr_6
 FR BND1      Q_hat_adjusted_6
 FR BND1      Lost_1_expr_6
 FR BND1      Lost_0_expr_7
 FR BND1      Q_hat_adjusted_7
 FR BND1      Lost_1_expr_7
 FR BND1      Lost_0_expr_8
 FR BND1      Q_hat_adjusted_8
 FR BND1      Lost_1_expr_8
 FR BND1      Lost_0_expr_9
 FR BND1      Q_hat_adjusted_9
 FR BND1      Lost_1_expr_9
 FR BND1      Lost_0_expr_10
 FR BND1      Q_hat_adjusted_10
 FR BND1      Lost_1_expr_10
 FR BND1      Lost_0_expr_11
 FR BND1      Q_hat_adjusted_11
 FR BND1      Lost_1_expr_11
 FR BND1      Lost_0_expr_12
 FR BND1      Q_hat_adjusted_12
 FR BND1      Lost_1_expr_12
 FR BND1      Lost_0_expr_13
 FR BND1      Q_hat_adjusted_13
 FR BND1      Lost_1_expr_13
 FR BND1      Lost_0_expr_14
 FR BND1      Q_hat_adjusted_14
 FR BND1      Lost_1_expr_14
GENCONS
 LOGISTIC GC0
    Options  0  0.01  0.001  -1  -1
    f_var[0]  Fraction[0]
 MIN min_sales_constr_0
    Sold_0[0]
    Q0_var[0]
    2.2010286545732342e+03
 MAX max_lost_constr_0
    Lost_0[0]
    Lost_0_expr_0
    0
 MAX max_Q1_constr_0
    Q1_var[0]
    Q_hat_adjusted_0
    0
 MIN min_sales2_constr_0
    Sold_1[0]
    total_stock_second_period_0
    5.8712810640902512e+02
 MAX max_lost2_constr_0
    Lost_1[0]
    Lost_1_expr_0
    0
 LOGISTIC GC6
    Options  0  0.01  0.001  -1  -1
    f_var[1]  Fraction[1]
 MIN min_sales_constr_1
    Sold_0[1]
    Q0_var[1]
    2.3751695393564105e+03
 MAX max_lost_constr_1
    Lost_0[1]
    Lost_0_expr_1
    0
 MAX max_Q1_constr_1
    Q1_var[1]
    Q_hat_adjusted_1
    0
 MIN min_sales2_constr_1
    Sold_1[1]
    total_stock_second_period_1
    595.172500780447
 MAX max_lost2_constr_1
    Lost_1[1]
    Lost_1_expr_1
    0
 LOGISTIC GC12
    Options  0  0.01  0.001  -1  -1
    f_var[2]  Fraction[2]
 MIN min_sales_constr_2
    Sold_0[2]
    Q0_var[2]
    9.0426326690706151e+02
 MAX max_lost_constr_2
    Lost_0[2]
    Lost_0_expr_2
    0
 MAX max_Q1_constr_2
    Q1_var[2]
    Q_hat_adjusted_2
    0
 MIN min_sales2_constr_2
    Sold_1[2]
    total_stock_second_period_2
    3.0452704768653081e+02
 MAX max_lost2_constr_2
    Lost_1[2]
    Lost_1_expr_2
    0
 LOGISTIC GC18
    Options  0  0.01  0.001  -1  -1
    f_var[3]  Fraction[3]
 MIN min_sales_constr_3
    Sold_0[3]
    Q0_var[3]
    9.5712113269199369e+02
 MAX max_lost_constr_3
    Lost_0[3]
    Lost_0_expr_3
    0
 MAX max_Q1_constr_3
    Q1_var[3]
    Q_hat_adjusted_3
    0
 MIN min_sales2_constr_3
    Sold_1[3]
    total_stock_second_period_3
    1.8147721302451703e+02
 MAX max_lost2_constr_3
    Lost_1[3]
    Lost_1_expr_3
    0
 LOGISTIC GC24
    Options  0  0.01  0.001  -1  -1
    f_var[4]  Fraction[4]
 MIN min_sales_constr_4
    Sold_0[4]
    Q0_var[4]
    1.6174405828412530e+03
 MAX max_lost_constr_4
    Lost_0[4]
    Lost_0_expr_4
    0
 MAX max_Q1_constr_4
    Q1_var[4]
    Q_hat_adjusted_4
    0
 MIN min_sales2_constr_4
    Sold_1[4]
    total_stock_second_period_4
    4.1938087868326465e+02
 MAX max_lost2_constr_4
    Lost_1[4]
    Lost_1_expr_4
    0
 LOGISTIC GC30
    Options  0  0.01  0.001  -1  -1
    f_var[5]  Fraction[5]
 MIN min_sales_constr_5
    Sold_0[5]
    Q0_var[5]
    1.1940234594957019e+03
 MAX max_lost_constr_5
    Lost_0[5]
    Lost_0_expr_5
    0
 MAX max_Q1_constr_5
    Q1_var[5]
    Q_hat_adjusted_5
    0
 MIN min_sales2_constr_5
    Sold_1[5]
    total_stock_second_period_5
    3.4515267327436857e+02
 MAX max_lost2_constr_5
    Lost_1[5]
    Lost_1_expr_5
    0
 LOGISTIC GC36
    Options  0  0.01  0.001  -1  -1
    f_var[6]  Fraction[6]
 MIN min_sales_constr_6
    Sold_0[6]
    Q0_var[6]
    2.5902844386069337e+03
 MAX max_lost_constr_6
    Lost_0[6]
    Lost_0_expr_6
    0
 MAX max_Q1_constr_6
    Q1_var[6]
    Q_hat_adjusted_6
    0
 MIN min_sales2_constr_6
    Sold_1[6]
    total_stock_second_period_6
    5.9470488864221568e+02
 MAX max_lost2_constr_6
    Lost_1[6]
    Lost_1_expr_6
    0
 LOGISTIC GC42
    Options  0  0.01  0.001  -1  -1
    f_var[7]  Fraction[7]
 MIN min_sales_constr_7
    Sold_0[7]
    Q0_var[7]
    4.9944614420837280e+02
 MAX max_lost_constr_7
    Lost_0[7]
    Lost_0_expr_7
    0
 MAX max_Q1_constr_7
    Q1_var[7]
    Q_hat_adjusted_7
    0
 MIN min_sales2_constr_7
    Sold_1[7]
    total_stock_second_period_7
    1.3265210352446960e+02
 MAX max_lost2_constr_7
    Lost_1[7]
    Lost_1_expr_7
    0
 LOGISTIC GC48
    Options  0  0.01  0.001  -1  -1
    f_var[8]  Fraction[8]
 MIN min_sales_constr_8
    Sold_0[8]
    Q0_var[8]
    1.8540669033820313e+03
 MAX max_lost_constr_8
    Lost_0[8]
    Lost_0_expr_8
    0
 MAX max_Q1_constr_8
    Q1_var[8]
    Q_hat_adjusted_8
    0
 MIN min_sales2_constr_8
    Sold_1[8]
    total_stock_second_period_8
    4.9161721915690657e+02
 MAX max_lost2_constr_8
    Lost_1[8]
    Lost_1_expr_8
    0
 LOGISTIC GC54
    Options  0  0.01  0.001  -1  -1
    f_var[9]  Fraction[9]
 MIN min_sales_constr_9
    Sold_0[9]
    Q0_var[9]
    9.2805716127200390e+02
 MAX max_lost_constr_9
    Lost_0[9]
    Lost_0_expr_9
    0
 MAX max_Q1_constr_9
    Q1_var[9]
    Q_hat_adjusted_9
    0
 MIN min_sales2_constr_9
    Sold_1[9]
    total_stock_second_period_9
    2.4419924866582062e+02
 MAX max_lost2_constr_9
    Lost_1[9]
    Lost_1_expr_9
    0
 LOGISTIC GC60
    Options  0  0.01  0.001  -1  -1
    f_var[10]  Fraction[10]
 MIN min_sales_constr_10
    Sold_0[10]
    Q0_var[10]
    8.4464753789780207e+02
 MAX max_lost_constr_10
    Lost_0[10]
    Lost_0_expr_10
    0
 MAX max_Q1_constr_10
    Q1_var[10]
    Q_hat_adjusted_10
    0
 MIN min_sales2_constr_10
    Sold_1[10]
    total_stock_second_period_10
    220.709310038287
 MAX max_lost2_constr_10
    Lost_1[10]
    Lost_1_expr_10
    0
 LOGISTIC GC66
    Options  0  0.01  0.001  -1  -1
    f_var[11]  Fraction[11]
 MIN min_sales_constr_11
    Sold_0[11]
    Q0_var[11]
    1.8154775765040301e+03
 MAX max_lost_constr_11
    Lost_0[11]
    Lost_0_expr_11
    0
 MAX max_Q1_constr_11
    Q1_var[11]
    Q_hat_adjusted_11
    0
 MIN min_sales2_constr_11
    Sold_1[11]
    total_stock_second_period_11
    431.252285766338
 MAX max_lost2_constr_11
    Lost_1[11]
    Lost_1_expr_11
    0
 LOGISTIC GC72
    Options  0  0.01  0.001  -1  -1
    f_var[12]  Fraction[12]
 MIN min_sales_constr_12
    Sold_0[12]
    Q0_var[12]
    1.0128615657648268e+03
 MAX max_lost_constr_12
    Lost_0[12]
    Lost_0_expr_12
    0
 MAX max_Q1_constr_12
    Q1_var[12]
    Q_hat_adjusted_12
    0
 MIN min_sales2_constr_12
    Sold_1[12]
    total_stock_second_period_12
    2.2303159249548048e+02
 MAX max_lost2_constr_12
    Lost_1[12]
    Lost_1_expr_12
    0
 LOGISTIC GC78
    Options  0  0.01  0.001  -1  -1
    f_var[13]  Fraction[13]
 MIN min_sales_constr_13
    Sold_0[13]
    Q0_var[13]
    1.7829991719080851e+03
 MAX max_lost_constr_13
    Lost_0[13]
    Lost_0_expr_13
    0
 MAX max_Q1_constr_13
    Q1_var[13]
    Q_hat_adjusted_13
    0
 MIN min_sales2_constr_13
    Sold_1[13]
    total_stock_second_period_13
    4.3292955877959383e+02
 MAX max_lost2_constr_13
    Lost_1[13]
    Lost_1_expr_13
    0
 LOGISTIC GC84
    Options  0  0.01  0.001  -1  -1
    f_var[14]  Fraction[14]
 MIN min_sales_constr_14
    Sold_0[14]
    Q0_var[14]
    1.3231457132094265e+03
 MAX max_lost_constr_14
    Lost_0[14]
    Lost_0_expr_14
    0
 MAX max_Q1_constr_14
    Q1_var[14]
    Q_hat_adjusted_14
    0
 MIN min_sales2_constr_14
    Sold_1[14]
    total_stock_second_period_14
    3.5865425860114436e+02
 MAX max_lost2_constr_14
    Lost_1[14]
    Lost_1_expr_14
    0
ENDATA
